19924
14072
31426
2053
12018
18357
19403
1954
13467
14214
18024
3903
193
15295
7062
19083
28225
28238
21207
21910
424
21519
16967
20391
5856
31098
27350
6247
16839
2671
14402
259
6065
26558
7010
29676
11143
25988
28265
13791
22272
19579
10392
7954
32411
7668
11750
31974
29219
24169
18082
16612
20909
19133
27173
12148
32180
15103
25596
16923
4955
20261
14311
21580
27298
15079
15904
23157
26505
2388
28790
29086
17759
27105
20960
19925
31687
20710
26680
24611
22214
26340
10456
7669
29734
30527
31434
3913
10537
26245
19489
9611
26555
25407
22339
478
12945
27890
3110
10312
